# Solution for model phototropism_srl_ilp
# Objective value = 5.4238131576185857e+00
Z_410_5_0 0
Z_410_5_1 0
Z_410_5_2 0
Z_410_5_3 0
Z_410_5_4 1
Z_410_2_0 0
Z_410_2_1 0
Z_410_2_2 0
Z_410_2_3 0
Z_410_2_4 1
Z_410_4_0 0
Z_410_4_1 0
Z_410_4_2 0
Z_410_4_3 0
Z_410_4_4 1
Z_410_1_0 0
Z_410_1_1 0
Z_410_1_2 0
Z_410_1_3 0
Z_410_1_4 1
Z_410_0_0 0
Z_410_0_1 0
Z_410_0_2 0
Z_410_0_3 0
Z_410_0_4 1
Z_410_6_0 0
Z_410_6_1 0
Z_410_6_2 0
Z_410_6_3 0
Z_410_6_4 1
Z_410_3_0 0
Z_410_3_1 1
Z_410_3_2 0
Z_410_3_3 0
Z_410_3_4 0
Z_493_0_0 0
Z_493_0_1 0
Z_493_0_2 0
Z_493_0_3 0
Z_493_0_4 1
